(declare-const src String)
(declare-const GEN1 Int)
(declare-const GEN2 Int)
(declare-const BAV3 Bool)
(declare-const BAV4 Bool)
(define-fun digit           () (RegEx String) (re.range "5"  "9"))
(define-fun decimal_strings () (RegEx String) (re.* digit       ))
(assert (= (str.len src) GEN1))
(assert (str.in.re src decimal_strings))
(assert (= GEN2 (str.to.int src)))
(assert (= BAV3 (= (str.len src) GEN1)))
(assert (= BAV4 (= GEN2 (str.to.int src))))
(check-sat)
(get-model)
(get-value (src))